ACTORES = {Actor0, Actor1, Actor2, Actor3, Actor4};
Escenas =[|0,0,0,0,0,0,0,0,0,0,1,0,0,0,0,20
		  |0,0,1,1,1,1,1,1,1,1,0,1,1,0,0,9
		  |0,1,1,1,0,0,1,1,0,0,0,0,1,0,1,3
		  |1,1,1,0,1,1,1,0,1,1,0,0,1,1,1,6
		  |0,0,1,1,1,0,1,1,1,1,1,0,0,0,1,9
		  |];
Duracion=[1, 2, 4, 5, 2, 3, 3, 4, 3, 3, 4, 1, 2, 2, 1];
Disponibilidad = [|Actor0, 35
				  |Actor1, 12
				  |Actor2, 27
				  |Actor3, 34
				  |Actor4, 8|];
Evitar = [|Actor1, Actor4
		  |Actor0, Actor4
		  |Actor0, Actor1|];
